14 21
1 2 659 1
1 13 831 1
1 14 917 1
2 12 1562 1
2 14 1304 1
3 8 659 1
3 12 1132 1
3 13 573 1
4 9 358 1
4 10 444 1
4 12 1476 1
5 11 745 1
5 12 917 1
6 8 659 1
6 11 659 1
6 14 2035 1
7 9 702 1
7 10 616 1
7 13 1734 1
9 11 487 1
10 11 444 1
33
1 2
1 3
1 7
2 3
2 4
2 8
3 4
3 5
3 9
4 5
4 6
4 10
5 6
5 7
5 11
6 7
6 8
6 12
7 8
7 9
7 13
8 9
8 10
8 14
9 10
9 11
10 11
10 12
11 12
11 13
12 13
12 14
13 14
6
1
1 5
